\ENCODING=ISO-8859-1
\Problem name: instances

Maximize
 obj:
Subject To
 c1: 834 x1 + 234 x2 + 786 x3 + 526 x4 + 784 x5 + 435 x6 + 986 x7 + 427 x8
     + 898 x9 + 873 x10 + 754 x11 + 368 x12 + 496 x13 + 639 x14 + 741 x15
     + 427 x16 + 515 x17 + 441 x18 + 487 x19 + 638 x20 + 81 x21 + 889 x22
     + 480 x23 + 856 x24 + 229 x25 + 534 x26 + 865 x27 + 759 x28 + 586 x29
     + 285 x30 + 415 x31 + 419 x32 + 519 x33 + 201 x34 + 944 x35 + 302 x36
     + 636 x37 + 930 x38 + 729 x39 + 533 x40 + 802 x41 + 482 x42 + 900 x43
     + 297 x44 + 121 x45 + 640 x46 + 723 x47 + 635 x48 + 81 x49 + 209 x50
     + 273 x51 + 161 x52 + 98 x53 + 753 x54 + 16 x55 + 326 x56 + 287 x57
     + 880 x58 + 84 x59 + 872 x60 + 165 x61 + 499 x62 + 290 x63 + 683 x64
     + 699 x65 + 234 x66 + 985 x67 + 335 x68 + 163 x69 + 713 x70 + 867 x71
     + 965 x72 + 194 x73 + 767 x74 + 261 x75 + 315 x76 + 407 x77 + 983 x78
     + 949 x79 + 487 x80 + 192 x81 + 222 x82 + 647 x83 + 289 x84 + 974 x85
     + 662 x86 + 615 x87 + 260 x88 + 542 x89 + 698 x90 + 131 x91 + 706 x92
     + 197 x93 + 421 x94 + 389 x95 + 896 x96 + 654 x97 + 373 x98 + 230 x99
     + 817 x100 <= 26498
Bounds
 0 <= x1 <= 1
 0 <= x2 <= 1
 0 <= x3 <= 1
 0 <= x4 <= 1
 0 <= x5 <= 1
 0 <= x6 <= 1
 0 <= x7 <= 1
 0 <= x8 <= 1
 0 <= x9 <= 1
 0 <= x10 <= 1
 0 <= x11 <= 1
 0 <= x12 <= 1
 0 <= x13 <= 1
 0 <= x14 <= 1
 0 <= x15 <= 1
 0 <= x16 <= 1
 0 <= x17 <= 1
 0 <= x18 <= 1
 0 <= x19 <= 1
 0 <= x20 <= 1
 0 <= x21 <= 1
 0 <= x22 <= 1
 0 <= x23 <= 1
 0 <= x24 <= 1
 0 <= x25 <= 1
 0 <= x26 <= 1
 0 <= x27 <= 1
 0 <= x28 <= 1
 0 <= x29 <= 1
 0 <= x30 <= 1
 0 <= x31 <= 1
 0 <= x32 <= 1
 0 <= x33 <= 1
 0 <= x34 <= 1
 0 <= x35 <= 1
 0 <= x36 <= 1
 0 <= x37 <= 1
 0 <= x38 <= 1
 0 <= x39 <= 1
 0 <= x40 <= 1
 0 <= x41 <= 1
 0 <= x42 <= 1
 0 <= x43 <= 1
 0 <= x44 <= 1
 0 <= x45 <= 1
 0 <= x46 <= 1
 0 <= x47 <= 1
 0 <= x48 <= 1
 0 <= x49 <= 1
 0 <= x50 <= 1
 0 <= x51 <= 1
 0 <= x52 <= 1
 0 <= x53 <= 1
 0 <= x54 <= 1
 0 <= x55 <= 1
 0 <= x56 <= 1
 0 <= x57 <= 1
 0 <= x58 <= 1
 0 <= x59 <= 1
 0 <= x60 <= 1
 0 <= x61 <= 1
 0 <= x62 <= 1
 0 <= x63 <= 1
 0 <= x64 <= 1
 0 <= x65 <= 1
 0 <= x66 <= 1
 0 <= x67 <= 1
 0 <= x68 <= 1
 0 <= x69 <= 1
 0 <= x70 <= 1
 0 <= x71 <= 1
 0 <= x72 <= 1
 0 <= x73 <= 1
 0 <= x74 <= 1
 0 <= x75 <= 1
 0 <= x76 <= 1
 0 <= x77 <= 1
 0 <= x78 <= 1
 0 <= x79 <= 1
 0 <= x80 <= 1
 0 <= x81 <= 1
 0 <= x82 <= 1
 0 <= x83 <= 1
 0 <= x84 <= 1
 0 <= x85 <= 1
 0 <= x86 <= 1
 0 <= x87 <= 1
 0 <= x88 <= 1
 0 <= x89 <= 1
 0 <= x90 <= 1
 0 <= x91 <= 1
 0 <= x92 <= 1
 0 <= x93 <= 1
 0 <= x94 <= 1
 0 <= x95 <= 1
 0 <= x96 <= 1
 0 <= x97 <= 1
 0 <= x98 <= 1
 0 <= x99 <= 1
 0 <= x100 <= 1
Binaries
 x1  x2  x3  x4  x5  x6  x7  x8  x9  x10  x11  x12  x13  x14  x15  x16  x17 
 x18  x19  x20  x21  x22  x23  x24  x25  x26  x27  x28  x29  x30  x31  x32 
 x33  x34  x35  x36  x37  x38  x39  x40  x41  x42  x43  x44  x45  x46  x47 
 x48  x49  x50  x51  x52  x53  x54  x55  x56  x57  x58  x59  x60  x61  x62 
 x63  x64  x65  x66  x67  x68  x69  x70  x71  x72  x73  x74  x75  x76  x77 
 x78  x79  x80  x81  x82  x83  x84  x85  x86  x87  x88  x89  x90  x91  x92 
 x93  x94  x95  x96  x97  x98  x99  x100 
End
